words_train/words_192_SAT.qaiger
aag 31 16 0 1 15
26
28
18
30
32
16
22
2
6
20
4
12
10
24
14
8
63
34 5 3
36 35 6
38 25 9
40 24 8
42 41 39
44 43 36
46 42 37
48 47 45
50 23 21
52 50 31
54 27 19
56 33 29
58 56 54
60 58 52
62 60 48
i0 2 y[4]
i1 2 y[5]
i2 2 y[0]
i3 2 y[6]
i4 2 y[7]
i5 1 x[7]
i6 2 y[2]
i7 1 x[0]
i8 1 x[2]
i9 2 y[1]
i10 1 x[1]
i11 1 x[5]
i12 1 x[4]
i13 2 y[3]
i14 1 x[6]
i15 1 x[3]
o0 bool[0]
c
simplified
  !=
    and
      subtract
        << 2
          1
        1 x
      << 3
        1
    2 y
