words_train/words_192_SAT.qaiger.qdimacs
p cnf 31 46
a 1 2 3 4 5 6 7 8 0
e 9 10 11 12 13 14 15 16 17 18 19 20 21 22 23 24 25 26 27 28 29 30 31 0
2 1 17 0
-2 -17 0
-1 -17 0
17 -3 18 0
-17 -18 0
3 -18 0
12 4 19 0
-12 -19 0
-4 -19 0
-12 -4 20 0
12 -20 0
4 -20 0
20 19 21 0
-20 -21 0
-19 -21 0
21 -18 22 0
-21 -22 0
18 -22 0
-21 18 23 0
21 -23 0
-18 -23 0
23 22 24 0
-23 -24 0
-22 -24 0
11 10 25 0
-11 -25 0
-10 -25 0
-25 15 26 0
25 -26 0
-15 -26 0
13 9 27 0
-13 -27 0
-9 -27 0
16 14 28 0
-16 -28 0
-14 -28 0
-28 -27 29 0
28 -29 0
27 -29 0
-29 -26 30 0
29 -30 0
26 -30 0
-30 -24 31 0
30 -31 0
24 -31 0
-31 0
